NAME          SIMPKC1
ROWS
 E  R1
 N  R0
COLUMNS
    X1        R0                  2.
    X1        R1                  1.
    X2        R0                  1.
    X2        R1                  1.
RHS
    RHS       R1                  1.
ENDATA
